Instance name : SB_bar-n100-6
Authors : 
Date : 
Reference 
Solution
Route 1 : 4 29 54 34 48 40 90 79 21 71 6 84 98 56 8 14 64 10 58 50 60 39 100 89 
Route 2 : 20 70 16 47 66 18 97 1 68 51 7 57 13 23 73 26 3 49 76 63 35 85 53 99 
Route 3 : 31 32 81 25 38 82 88 37 75 30 87 11 2 9 52 59 19 61 44 80 69 94 46 27 77 96 
Route 4 : 22 43 72 93 41 12 91 62 24 42 28 92 74 5 17 67 78 45 95 33 55 15 83 36 86 65 
